
%FILE DATA:	Soccer Computational Problem for MiniZinc Models	%
%AUTHOR:	Jack Wall	%
%CONTACT:  	116397063@umail.ucc.ie			%
%LAST UPDATE:	03/03/2020, 16:38:38						%
%DESCRIPTION: 	77 games played with 33 games left				%


n=11; %number of teams

%Games to play
games=[|9,10|10,11|4,7|6,4|5,2|2,5|5,7|9,8|6,2|11,1|1,6|11,8|1,8|10,8|3,5|11,5|8,4|4,6|10,7|7,8|2,6|11,7|1,2|5,9|3,9|6,5|11,2|9,11|10,2|7,6|2,4|8,2|1,9|];

%Initial points
iPoints=[14,11,27,20,19,14,24,20,24,27,12];

%POSITION CONSTRAINTS
% [|teamID, operator, position|...]
% operators index:
%  1 for =  operator
%  2 for >  operator
%  3 for >= operator
%  4 for <  operator
%  5 for <= operator
positionConstraints=[|10,1,1|9,3,2|5,5,3|3,3,4|];